Set parameter Threads to value 1
Set parameter ConcurrentMIP to value 1
Set parameter MIPGap to value 0.05
Set parameter ConcurrentMIP to value 1
Set parameter MIPGap to value 0.05
Set parameter Threads to value 1
Gurobi Optimizer version 13.0.0 build v13.0.0rc1 (linux64 - "AlmaLinux 9.7 (Moss Jungle Cat)")

CPU model: Intel(R) Xeon(R) Gold 6126 CPU @ 2.60GHz, instruction set [SSE2|AVX|AVX2|AVX512]
Thread count: 24 physical cores, 24 logical processors, using up to 1 threads

Non-default parameters:
MIPGap  0.05
TSPort  4195
Threads  1

Optimize a model with 128424 rows, 2268108 columns and 29188764 nonzeros (Min)
Model fingerprint: 0x0f23349b
Model has 42012 linear objective coefficients
Variable types: 2246508 continuous, 21600 integer (21600 binary)
Coefficient statistics:
  Matrix range     [1e+00, 3e+02]
  Objective range  [4e-02, 1e+00]
  Bounds range     [0e+00, 0e+00]
  RHS range        [1e+00, 3e+02]
Found heuristic solution: objective 17478.307150
Presolve removed 15030 rows and 20400 columns (presolve time = 6s)...
Presolve removed 30891 rows and 728724 columns (presolve time = 10s)...
Presolve removed 30891 rows and 729153 columns (presolve time = 15s)...
Presolve removed 54650 rows and 729573 columns (presolve time = 21s)...
Presolve removed 59036 rows and 729573 columns (presolve time = 26s)...
Presolve removed 71876 rows and 733740 columns (presolve time = 30s)...
Presolve removed 71876 rows and 733740 columns (presolve time = 35s)...
Presolve removed 71876 rows and 733740 columns (presolve time = 40s)...
Presolve removed 71876 rows and 733740 columns (presolve time = 45s)...
Presolve removed 77732 rows and 1071882 columns (presolve time = 50s)...
Presolve removed 77915 rows and 1072065 columns (presolve time = 55s)...
Presolve removed 77915 rows and 1072065 columns (presolve time = 60s)...
Presolve removed 77630 rows and 1071780 columns
Presolve time: 62.93s
Presolved: 50794 rows, 1196328 columns, 9466658 nonzeros
Variable types: 1192224 continuous, 4104 integer (4104 binary)

Root simplex log...

Iteration    Objective       Primal Inf.    Dual Inf.      Time
       0    0.0000000e+00   4.233514e+04   0.000000e+00     75s
   24194    3.4196252e+03   3.581256e+04   0.000000e+00     80s
   40358    3.7917179e+03   3.209234e+04   0.000000e+00     85s
   55315    4.1492024e+03   2.004705e+04   0.000000e+00     90s
   68314    4.4717804e+03   4.378024e+04   0.000000e+00     95s
   69414    4.4717805e+03   1.990965e+05   0.000000e+00    101s
   70844    4.4792779e+03   2.216188e+05   0.000000e+00    105s
   73044    4.4881154e+03   4.447624e+06   0.000000e+00    110s
   74364    4.4904213e+03   2.218654e+05   0.000000e+00    116s
   76454    4.4997985e+03   6.456699e+04   0.000000e+00    120s
   79204    4.5049575e+03   4.007178e+04   0.000000e+00    125s
   82028    4.5717134e+03   1.390692e+05   0.000000e+00    130s
   84008    4.5885589e+03   2.838762e+05   0.000000e+00    135s
   85548    4.5919038e+03   7.336497e+05   0.000000e+00    140s
   87088    4.5939449e+03   4.484827e+04   0.000000e+00    145s
   88628    4.5954990e+03   8.253896e+04   0.000000e+00    150s
   90278    4.6101288e+03   2.118718e+05   0.000000e+00    155s
   91928    4.6138287e+03   1.153064e+05   0.000000e+00    160s
   94154    4.6347738e+03   3.213819e+04   0.000000e+00    165s
   95144    4.6358307e+03   2.672403e+05   0.000000e+00    170s
   95884    4.6358307e+03   1.238999e+06   0.000000e+00    175s
   96984    4.6358308e+03   1.384395e+05   0.000000e+00    180s
   97974    4.6358308e+03   8.605672e+05   0.000000e+00    186s
   98744    4.6358309e+03   1.102986e+05   0.000000e+00    190s
   99954    4.6358309e+03   6.304491e+04   0.000000e+00    195s
  101164    4.6358310e+03   3.511919e+04   0.000000e+00    200s
  102264    4.6370932e+03   5.207625e+05   0.000000e+00    205s
  102894    4.6370933e+03   3.313141e+05   0.000000e+00    211s
  104104    4.6374498e+03   8.388531e+04   0.000000e+00    216s
  104514    4.6374498e+03   3.202730e+05   0.000000e+00    220s
  105504    4.6381623e+03   3.837194e+04   0.000000e+00    225s
  106714    4.6386945e+03   2.871446e+04   0.000000e+00    230s
  107584    4.6386945e+03   2.852102e+05   0.000000e+00    236s
  108234    4.6389125e+03   5.699201e+05   0.000000e+00    240s
  109334    4.6454126e+03   1.170117e+05   0.000000e+00    246s
  110104    4.6454126e+03   2.676341e+04   0.000000e+00    251s
  110534    4.6454126e+03   5.577664e+04   0.000000e+00    255s
  111284    4.6454126e+03   2.880909e+04   0.000000e+00    261s
  111924    4.6454127e+03   3.110876e+04   0.000000e+00    265s
  112444    4.6454127e+03   1.558877e+04   0.000000e+00    270s
  112994    4.6454127e+03   2.091869e+04   0.000000e+00    275s
  113764    4.6454127e+03   1.534853e+04   0.000000e+00    280s
  114274    4.6454127e+03   1.744566e+04   0.000000e+00    285s
  114814    4.6454127e+03   6.553952e+04   0.000000e+00    290s
  115444    4.6454127e+03   3.777204e+04   0.000000e+00    296s
  116104    4.6454127e+03   9.570465e+04   0.000000e+00    300s
  116754    4.6457670e+03   5.348590e+03   0.000000e+00    305s
  117264    4.6457670e+03   1.054999e+04   0.000000e+00    311s
  117794    4.6457670e+03   1.506418e+04   0.000000e+00    315s
  118434    4.6459095e+03   4.822608e+04   0.000000e+00    321s
  119184    4.6459095e+03   1.121093e+04   0.000000e+00    326s
  119704    4.6459095e+03   3.315640e+03   0.000000e+00    331s
  120464    4.6459095e+03   2.035677e+03   0.000000e+00    336s
  120854    4.6459095e+03   4.945909e+03   0.000000e+00    340s
  121344    4.6459095e+03   1.137262e+04   0.000000e+00    346s
  121814    4.6459095e+03   5.784914e+03   0.000000e+00    351s
  122454    4.6459095e+03   1.122722e+03   0.000000e+00    357s
  122884    4.6459095e+03   3.638268e+03   0.000000e+00    361s
  123254    4.6459095e+03   6.188805e+01   0.000000e+00    365s
  123764    4.6459095e+03   9.286731e-01   0.000000e+00    371s
  123792    4.6458992e+03   0.000000e+00   0.000000e+00    371s

Use crossover to convert LP symmetric solution to basic solution...

Root crossover log...

   10116 DPushes remaining with DInf 0.0000000e+00               371s
       0 DPushes remaining with DInf 0.0000000e+00               371s

   12133 PPushes remaining with PInf 0.0000000e+00               372s
       0 PPushes remaining with PInf 0.0000000e+00               372s

  Push phase complete: Pinf 0.0000000e+00, Dinf 1.5734358e-12    372s


Root simplex log...

Iteration    Objective       Primal Inf.    Dual Inf.      Time
  143349    4.6458992e+03   0.000000e+00   0.000000e+00    372s
Crossover time: 0.71 seconds (0.28 work units)
  143349    4.6458992e+03   0.000000e+00   0.000000e+00    372s

Root relaxation: objective 4.645899e+03, 143349 iterations, 305.27 seconds (188.26 work units)

    Nodes    |    Current Node    |     Objective Bounds      |     Work
 Expl Unexpl |  Obj  Depth IntInf | Incumbent    BestBd   Gap | It/Node Time

     0     0 4645.89924    0   11 17478.3071 4645.89924  73.4%     - 1314s
H    0     0                    4709.6234875 4645.89924  1.35%     - 1314s

Explored 1 nodes (270153 simplex iterations) in 1314.90 seconds (787.49 work units)
Thread count was 1 (of 24 available processors)

Solution count 2: 4709.62 17478.3 

Optimal solution found (tolerance 5.00e-02)
Best objective 4.709623487500e+03, best bound 4.645899237500e+03, gap 1.3531%

User-callback calls 6388, time in user-callback 0.02 sec
